(set-info :smt-lib-version 2.6)
(set-logic QF_NIA)
(set-info :source |
Generated by: Cristina Borralleras, Daniel Larraz, Albert Oliveras, Enric Rodriguez-Carbonell, Albert Rubio
Generated on: 2017-04-27
Generator: VeryMax
Application: Termination proving
Target solver: barcelogic
|)
(set-info :license "https://creativecommons.org/licenses/by/4.0/")
(set-info :category "industrial")
(set-info :status sat)
(declare-fun Nl2main_i1 () Int)
(declare-fun Nl2main_j1 () Int)
(declare-fun Nl2main_i2 () Int)
(declare-fun Nl2main_j2 () Int)
(declare-fun Nl2main_i3 () Int)
(declare-fun Nl2main_j3 () Int)
(declare-fun lam0n0 () Int)
(declare-fun lam0n1 () Int)
(declare-fun lam0n2 () Int)
(declare-fun lam0n3 () Int)
(declare-fun lam0n4 () Int)
(declare-fun lam0n5 () Int)
(declare-fun lam0n6 () Int)
(declare-fun lam0n7 () Int)
(declare-fun lam0n8 () Int)
(declare-fun lam0n9 () Int)
(declare-fun Nl2CT1 () Int)
(declare-fun Nl2CT2 () Int)
(declare-fun Nl2CT3 () Int)
(declare-fun lam1n0 () Int)
(declare-fun lam1n1 () Int)
(declare-fun lam1n2 () Int)
(declare-fun lam1n3 () Int)
(declare-fun lam1n4 () Int)
(declare-fun lam1n5 () Int)
(declare-fun lam1n6 () Int)
(declare-fun lam1n7 () Int)
(declare-fun lam1n8 () Int)
(declare-fun lam1n9 () Int)
(declare-fun lam2n0 () Int)
(declare-fun lam2n1 () Int)
(declare-fun lam2n2 () Int)
(declare-fun lam2n3 () Int)
(declare-fun lam2n4 () Int)
(declare-fun lam2n5 () Int)
(declare-fun lam2n6 () Int)
(declare-fun lam2n7 () Int)
(declare-fun lam2n8 () Int)
(declare-fun lam2n9 () Int)
(declare-fun lam3n0 () Int)
(declare-fun lam3n1 () Int)
(declare-fun lam3n2 () Int)
(declare-fun lam3n3 () Int)
(declare-fun lam3n4 () Int)
(declare-fun lam3n5 () Int)
(declare-fun lam3n6 () Int)
(declare-fun lam3n7 () Int)
(declare-fun lam3n8 () Int)
(declare-fun lam3n9 () Int)
(declare-fun lam4n0 () Int)
(declare-fun lam4n1 () Int)
(declare-fun lam4n2 () Int)
(declare-fun lam4n3 () Int)
(declare-fun lam4n4 () Int)
(declare-fun lam4n5 () Int)
(declare-fun lam4n6 () Int)
(declare-fun lam4n7 () Int)
(declare-fun lam4n8 () Int)
(declare-fun lam5n0 () Int)
(declare-fun lam5n1 () Int)
(declare-fun lam5n2 () Int)
(declare-fun lam5n3 () Int)
(declare-fun lam5n4 () Int)
(declare-fun lam5n5 () Int)
(declare-fun lam5n6 () Int)
(declare-fun lam5n7 () Int)
(declare-fun lam5n8 () Int)
(declare-fun lam6n0 () Int)
(declare-fun lam6n1 () Int)
(declare-fun lam6n2 () Int)
(declare-fun lam6n3 () Int)
(declare-fun lam6n4 () Int)
(declare-fun lam6n5 () Int)
(declare-fun lam6n6 () Int)
(declare-fun lam6n7 () Int)
(declare-fun lam6n8 () Int)
(declare-fun lam7n0 () Int)
(declare-fun lam7n1 () Int)
(declare-fun lam7n2 () Int)
(declare-fun lam7n3 () Int)
(declare-fun lam7n4 () Int)
(declare-fun lam7n5 () Int)
(declare-fun lam7n6 () Int)
(declare-fun lam7n7 () Int)
(declare-fun lam7n8 () Int)
(declare-fun lam8n0 () Int)
(declare-fun lam8n1 () Int)
(declare-fun lam9n0 () Int)
(declare-fun lam9n1 () Int)
(declare-fun lam10n0 () Int)
(declare-fun lam10n1 () Int)
(declare-fun main_i () Int)
(declare-fun undef2 () Int)
(declare-fun main_j () Int)
(declare-fun FV_main_i_2 () Int)
(declare-fun FV_main_j_2 () Int)
(declare-fun lam11n0 () Int)
(declare-fun lam11n1 () Int)
(declare-fun lam11n2 () Int)
(declare-fun lam11n3 () Int)
(declare-fun lam11n4 () Int)
(declare-fun lam11n5 () Int)
(declare-fun lam11n6 () Int)
(declare-fun lam11n7 () Int)
(declare-fun lam12n0 () Int)
(declare-fun lam12n1 () Int)
(declare-fun lam12n2 () Int)
(declare-fun lam12n3 () Int)
(declare-fun lam12n4 () Int)
(declare-fun lam12n5 () Int)
(declare-fun lam12n6 () Int)
(declare-fun lam13n0 () Int)
(declare-fun lam13n1 () Int)
(declare-fun lam13n2 () Int)
(declare-fun lam13n3 () Int)
(declare-fun lam13n4 () Int)
(declare-fun lam13n5 () Int)
(declare-fun lam13n6 () Int)
(declare-fun lam13n7 () Int)
(declare-fun lam14n0 () Int)
(declare-fun lam14n1 () Int)
(declare-fun lam14n2 () Int)
(declare-fun lam14n3 () Int)
(declare-fun lam14n4 () Int)
(declare-fun lam14n5 () Int)
(declare-fun lam14n6 () Int)
(declare-fun lam15n0 () Int)
(declare-fun lam15n1 () Int)
(declare-fun lam15n2 () Int)
(declare-fun lam15n3 () Int)
(declare-fun lam15n4 () Int)
(declare-fun lam15n5 () Int)
(declare-fun lam15n6 () Int)
(declare-fun lam15n7 () Int)
(declare-fun lam16n0 () Int)
(declare-fun lam16n1 () Int)
(declare-fun lam16n2 () Int)
(declare-fun lam16n3 () Int)
(declare-fun lam16n4 () Int)
(declare-fun lam16n5 () Int)
(declare-fun lam16n6 () Int)
(declare-fun lam17n0 () Int)
(declare-fun lam17n1 () Int)
(declare-fun lam17n2 () Int)
(declare-fun lam17n3 () Int)
(declare-fun lam17n4 () Int)
(declare-fun lam17n5 () Int)
(declare-fun lam17n6 () Int)
(declare-fun lam17n7 () Int)
(declare-fun lam18n0 () Int)
(declare-fun lam18n1 () Int)
(declare-fun lam18n2 () Int)
(declare-fun lam18n3 () Int)
(declare-fun lam18n4 () Int)
(declare-fun lam18n5 () Int)
(declare-fun FV_main_i_3 () Int)
(declare-fun FV_main_j_3 () Int)
(assert ( and ( <= ( - 2 ) Nl2main_i1 ) ( <= Nl2main_i1 2 ) ( <= ( - 2 ) Nl2main_j1 ) ( <= Nl2main_j1 2 ) ( <= ( - 2 ) Nl2main_i2 ) ( <= Nl2main_i2 2 ) ( <= ( - 2 ) Nl2main_j2 ) ( <= Nl2main_j2 2 ) ( <= ( - 2 ) Nl2main_i3 ) ( <= Nl2main_i3 2 ) ( <= ( - 2 ) Nl2main_j3 ) ( <= Nl2main_j3 2 ) ))
(assert ( or ( and ( >= lam0n0 0 ) ( >= lam0n1 0 ) ( >= lam0n2 0 ) ( >= lam0n3 0 ) ( >= lam0n4 0 ) ( >= lam0n5 0 ) ( >= lam0n6 0 ) ( >= lam0n7 0 ) ( >= lam0n8 0 ) ( >= lam0n9 0 ) ( > ( + ( * 1 lam0n1 ) ( * ( - 4 ) lam0n2 ) ( * 3 lam0n3 ) ( * 50001 lam0n4 ) ( * 50001 lam0n5 ) ( * 50001 lam0n6 ) ( * Nl2CT1 lam0n7 ) ( * Nl2CT2 lam0n8 ) ( * Nl2CT3 lam0n9 ) ( - 1 ) ) 0 ) ( = ( + ( * ( - 1 ) lam0n0 ) ( * ( - 1 ) lam0n3 ) ( * ( - 1 ) lam0n4 ) ( * ( - 2 ) lam0n5 ) ( * ( - 2 ) lam0n6 ) ( * Nl2main_i1 lam0n7 ) ( * Nl2main_i2 lam0n8 ) ( * Nl2main_i3 lam0n9 ) ) 0 ) ( = ( + ( * ( - 1 ) lam0n0 ) ( * ( - 1 ) lam0n1 ) ( * 1 lam0n2 ) ( * 1 lam0n3 ) ( * ( - 1 ) lam0n5 ) ( * 3 lam0n6 ) ( * Nl2main_j1 lam0n7 ) ( * Nl2main_j2 lam0n8 ) ( * Nl2main_j3 lam0n9 ) ) 0 ) ) ( and ( >= lam1n0 0 ) ( >= lam1n1 0 ) ( >= lam1n2 0 ) ( >= lam1n3 0 ) ( >= lam1n4 0 ) ( >= lam1n5 0 ) ( >= lam1n6 0 ) ( >= lam1n7 0 ) ( >= lam1n8 0 ) ( >= lam1n9 0 ) ( > ( + ( * 1 lam1n1 ) ( * ( - 4 ) lam1n2 ) ( * 3 lam1n3 ) ( * 50001 lam1n4 ) ( * 50001 lam1n5 ) ( * 50001 lam1n6 ) ( * Nl2CT1 lam1n7 ) ( * Nl2CT2 lam1n8 ) ( * Nl2CT3 lam1n9 ) ( - 1 ( + ( + Nl2CT1 ( * Nl2main_i1 2 ) ) ( * Nl2main_j1 1 ) ) ) ) 0 ) ( = ( + ( * ( - 1 ) lam1n0 ) ( * ( - 1 ) lam1n3 ) ( * ( - 1 ) lam1n4 ) ( * ( - 2 ) lam1n5 ) ( * ( - 2 ) lam1n6 ) ( * Nl2main_i1 lam1n7 ) ( * Nl2main_i2 lam1n8 ) ( * Nl2main_i3 lam1n9 ) ( - ( + 0 ( * Nl2main_i1 1 ) ) ) ) 0 ) ( = ( + ( * ( - 1 ) lam1n0 ) ( * ( - 1 ) lam1n1 ) ( * 1 lam1n2 ) ( * 1 lam1n3 ) ( * ( - 1 ) lam1n5 ) ( * 3 lam1n6 ) ( * Nl2main_j1 lam1n7 ) ( * Nl2main_j2 lam1n8 ) ( * Nl2main_j3 lam1n9 ) ( - ( + 0 ( * Nl2main_j1 1 ) ) ) ) 0 ) ) ))
(assert ( or ( and ( >= lam0n0 0 ) ( >= lam0n1 0 ) ( >= lam0n2 0 ) ( >= lam0n3 0 ) ( >= lam0n4 0 ) ( >= lam0n5 0 ) ( >= lam0n6 0 ) ( >= lam0n7 0 ) ( >= lam0n8 0 ) ( >= lam0n9 0 ) ( > ( + ( * 1 lam0n1 ) ( * ( - 4 ) lam0n2 ) ( * 3 lam0n3 ) ( * 50001 lam0n4 ) ( * 50001 lam0n5 ) ( * 50001 lam0n6 ) ( * Nl2CT1 lam0n7 ) ( * Nl2CT2 lam0n8 ) ( * Nl2CT3 lam0n9 ) ( - 1 ) ) 0 ) ( = ( + ( * ( - 1 ) lam0n0 ) ( * ( - 1 ) lam0n3 ) ( * ( - 1 ) lam0n4 ) ( * ( - 2 ) lam0n5 ) ( * ( - 2 ) lam0n6 ) ( * Nl2main_i1 lam0n7 ) ( * Nl2main_i2 lam0n8 ) ( * Nl2main_i3 lam0n9 ) ) 0 ) ( = ( + ( * ( - 1 ) lam0n0 ) ( * ( - 1 ) lam0n1 ) ( * 1 lam0n2 ) ( * 1 lam0n3 ) ( * ( - 1 ) lam0n5 ) ( * 3 lam0n6 ) ( * Nl2main_j1 lam0n7 ) ( * Nl2main_j2 lam0n8 ) ( * Nl2main_j3 lam0n9 ) ) 0 ) ) ( and ( >= lam2n0 0 ) ( >= lam2n1 0 ) ( >= lam2n2 0 ) ( >= lam2n3 0 ) ( >= lam2n4 0 ) ( >= lam2n5 0 ) ( >= lam2n6 0 ) ( >= lam2n7 0 ) ( >= lam2n8 0 ) ( >= lam2n9 0 ) ( > ( + ( * 1 lam2n1 ) ( * ( - 4 ) lam2n2 ) ( * 3 lam2n3 ) ( * 50001 lam2n4 ) ( * 50001 lam2n5 ) ( * 50001 lam2n6 ) ( * Nl2CT1 lam2n7 ) ( * Nl2CT2 lam2n8 ) ( * Nl2CT3 lam2n9 ) ( - 1 ( + ( + Nl2CT2 ( * Nl2main_i2 2 ) ) ( * Nl2main_j2 1 ) ) ) ) 0 ) ( = ( + ( * ( - 1 ) lam2n0 ) ( * ( - 1 ) lam2n3 ) ( * ( - 1 ) lam2n4 ) ( * ( - 2 ) lam2n5 ) ( * ( - 2 ) lam2n6 ) ( * Nl2main_i1 lam2n7 ) ( * Nl2main_i2 lam2n8 ) ( * Nl2main_i3 lam2n9 ) ( - ( + 0 ( * Nl2main_i2 1 ) ) ) ) 0 ) ( = ( + ( * ( - 1 ) lam2n0 ) ( * ( - 1 ) lam2n1 ) ( * 1 lam2n2 ) ( * 1 lam2n3 ) ( * ( - 1 ) lam2n5 ) ( * 3 lam2n6 ) ( * Nl2main_j1 lam2n7 ) ( * Nl2main_j2 lam2n8 ) ( * Nl2main_j3 lam2n9 ) ( - ( + 0 ( * Nl2main_j2 1 ) ) ) ) 0 ) ) ))
(assert ( or ( and ( >= lam0n0 0 ) ( >= lam0n1 0 ) ( >= lam0n2 0 ) ( >= lam0n3 0 ) ( >= lam0n4 0 ) ( >= lam0n5 0 ) ( >= lam0n6 0 ) ( >= lam0n7 0 ) ( >= lam0n8 0 ) ( >= lam0n9 0 ) ( > ( + ( * 1 lam0n1 ) ( * ( - 4 ) lam0n2 ) ( * 3 lam0n3 ) ( * 50001 lam0n4 ) ( * 50001 lam0n5 ) ( * 50001 lam0n6 ) ( * Nl2CT1 lam0n7 ) ( * Nl2CT2 lam0n8 ) ( * Nl2CT3 lam0n9 ) ( - 1 ) ) 0 ) ( = ( + ( * ( - 1 ) lam0n0 ) ( * ( - 1 ) lam0n3 ) ( * ( - 1 ) lam0n4 ) ( * ( - 2 ) lam0n5 ) ( * ( - 2 ) lam0n6 ) ( * Nl2main_i1 lam0n7 ) ( * Nl2main_i2 lam0n8 ) ( * Nl2main_i3 lam0n9 ) ) 0 ) ( = ( + ( * ( - 1 ) lam0n0 ) ( * ( - 1 ) lam0n1 ) ( * 1 lam0n2 ) ( * 1 lam0n3 ) ( * ( - 1 ) lam0n5 ) ( * 3 lam0n6 ) ( * Nl2main_j1 lam0n7 ) ( * Nl2main_j2 lam0n8 ) ( * Nl2main_j3 lam0n9 ) ) 0 ) ) ( and ( >= lam3n0 0 ) ( >= lam3n1 0 ) ( >= lam3n2 0 ) ( >= lam3n3 0 ) ( >= lam3n4 0 ) ( >= lam3n5 0 ) ( >= lam3n6 0 ) ( >= lam3n7 0 ) ( >= lam3n8 0 ) ( >= lam3n9 0 ) ( > ( + ( * 1 lam3n1 ) ( * ( - 4 ) lam3n2 ) ( * 3 lam3n3 ) ( * 50001 lam3n4 ) ( * 50001 lam3n5 ) ( * 50001 lam3n6 ) ( * Nl2CT1 lam3n7 ) ( * Nl2CT2 lam3n8 ) ( * Nl2CT3 lam3n9 ) ( - 1 ( + ( + Nl2CT3 ( * Nl2main_i3 2 ) ) ( * Nl2main_j3 1 ) ) ) ) 0 ) ( = ( + ( * ( - 1 ) lam3n0 ) ( * ( - 1 ) lam3n3 ) ( * ( - 1 ) lam3n4 ) ( * ( - 2 ) lam3n5 ) ( * ( - 2 ) lam3n6 ) ( * Nl2main_i1 lam3n7 ) ( * Nl2main_i2 lam3n8 ) ( * Nl2main_i3 lam3n9 ) ( - ( + 0 ( * Nl2main_i3 1 ) ) ) ) 0 ) ( = ( + ( * ( - 1 ) lam3n0 ) ( * ( - 1 ) lam3n1 ) ( * 1 lam3n2 ) ( * 1 lam3n3 ) ( * ( - 1 ) lam3n5 ) ( * 3 lam3n6 ) ( * Nl2main_j1 lam3n7 ) ( * Nl2main_j2 lam3n8 ) ( * Nl2main_j3 lam3n9 ) ( - ( + 0 ( * Nl2main_j3 1 ) ) ) ) 0 ) ) ))
(assert ( or ( and ( >= lam4n0 0 ) ( >= lam4n1 0 ) ( >= lam4n2 0 ) ( >= lam4n3 0 ) ( >= lam4n4 0 ) ( >= lam4n5 0 ) ( >= lam4n6 0 ) ( >= lam4n7 0 ) ( >= lam4n8 0 ) ( > ( + ( * 1 lam4n1 ) ( * 5 lam4n2 ) ( * 50001 lam4n3 ) ( * 50001 lam4n4 ) ( * 50001 lam4n5 ) ( * Nl2CT1 lam4n6 ) ( * Nl2CT2 lam4n7 ) ( * Nl2CT3 lam4n8 ) ( - 1 ) ) 0 ) ( = ( + ( * ( - 1 ) lam4n0 ) ( * ( - 1 ) lam4n1 ) ( * ( - 1 ) lam4n3 ) ( * ( - 2 ) lam4n4 ) ( * ( - 2 ) lam4n5 ) ( * Nl2main_i1 lam4n6 ) ( * Nl2main_i2 lam4n7 ) ( * Nl2main_i3 lam4n8 ) ) 0 ) ( = ( + ( * ( - 1 ) lam4n0 ) ( * 1 lam4n1 ) ( * ( - 1 ) lam4n2 ) ( * ( - 1 ) lam4n4 ) ( * 3 lam4n5 ) ( * Nl2main_j1 lam4n6 ) ( * Nl2main_j2 lam4n7 ) ( * Nl2main_j3 lam4n8 ) ) 0 ) ) ( and ( >= lam5n0 0 ) ( >= lam5n1 0 ) ( >= lam5n2 0 ) ( >= lam5n3 0 ) ( >= lam5n4 0 ) ( >= lam5n5 0 ) ( >= lam5n6 0 ) ( >= lam5n7 0 ) ( >= lam5n8 0 ) ( > ( + ( * 1 lam5n1 ) ( * 5 lam5n2 ) ( * 50001 lam5n3 ) ( * 50001 lam5n4 ) ( * 50001 lam5n5 ) ( * Nl2CT1 lam5n6 ) ( * Nl2CT2 lam5n7 ) ( * Nl2CT3 lam5n8 ) ( - 1 ( + ( + Nl2CT1 ( * Nl2main_i1 1 ) ) ( * Nl2main_j1 ( - 1 ) ) ) ) ) 0 ) ( = ( + ( * ( - 1 ) lam5n0 ) ( * ( - 1 ) lam5n1 ) ( * ( - 1 ) lam5n3 ) ( * ( - 2 ) lam5n4 ) ( * ( - 2 ) lam5n5 ) ( * Nl2main_i1 lam5n6 ) ( * Nl2main_i2 lam5n7 ) ( * Nl2main_i3 lam5n8 ) ( - ( + 0 ( * Nl2main_i1 1 ) ) ) ) 0 ) ( = ( + ( * ( - 1 ) lam5n0 ) ( * 1 lam5n1 ) ( * ( - 1 ) lam5n2 ) ( * ( - 1 ) lam5n4 ) ( * 3 lam5n5 ) ( * Nl2main_j1 lam5n6 ) ( * Nl2main_j2 lam5n7 ) ( * Nl2main_j3 lam5n8 ) ( - ( + 0 ( * Nl2main_j1 1 ) ) ) ) 0 ) ) ))
(assert ( or ( and ( >= lam4n0 0 ) ( >= lam4n1 0 ) ( >= lam4n2 0 ) ( >= lam4n3 0 ) ( >= lam4n4 0 ) ( >= lam4n5 0 ) ( >= lam4n6 0 ) ( >= lam4n7 0 ) ( >= lam4n8 0 ) ( > ( + ( * 1 lam4n1 ) ( * 5 lam4n2 ) ( * 50001 lam4n3 ) ( * 50001 lam4n4 ) ( * 50001 lam4n5 ) ( * Nl2CT1 lam4n6 ) ( * Nl2CT2 lam4n7 ) ( * Nl2CT3 lam4n8 ) ( - 1 ) ) 0 ) ( = ( + ( * ( - 1 ) lam4n0 ) ( * ( - 1 ) lam4n1 ) ( * ( - 1 ) lam4n3 ) ( * ( - 2 ) lam4n4 ) ( * ( - 2 ) lam4n5 ) ( * Nl2main_i1 lam4n6 ) ( * Nl2main_i2 lam4n7 ) ( * Nl2main_i3 lam4n8 ) ) 0 ) ( = ( + ( * ( - 1 ) lam4n0 ) ( * 1 lam4n1 ) ( * ( - 1 ) lam4n2 ) ( * ( - 1 ) lam4n4 ) ( * 3 lam4n5 ) ( * Nl2main_j1 lam4n6 ) ( * Nl2main_j2 lam4n7 ) ( * Nl2main_j3 lam4n8 ) ) 0 ) ) ( and ( >= lam6n0 0 ) ( >= lam6n1 0 ) ( >= lam6n2 0 ) ( >= lam6n3 0 ) ( >= lam6n4 0 ) ( >= lam6n5 0 ) ( >= lam6n6 0 ) ( >= lam6n7 0 ) ( >= lam6n8 0 ) ( > ( + ( * 1 lam6n1 ) ( * 5 lam6n2 ) ( * 50001 lam6n3 ) ( * 50001 lam6n4 ) ( * 50001 lam6n5 ) ( * Nl2CT1 lam6n6 ) ( * Nl2CT2 lam6n7 ) ( * Nl2CT3 lam6n8 ) ( - 1 ( + ( + Nl2CT2 ( * Nl2main_i2 1 ) ) ( * Nl2main_j2 ( - 1 ) ) ) ) ) 0 ) ( = ( + ( * ( - 1 ) lam6n0 ) ( * ( - 1 ) lam6n1 ) ( * ( - 1 ) lam6n3 ) ( * ( - 2 ) lam6n4 ) ( * ( - 2 ) lam6n5 ) ( * Nl2main_i1 lam6n6 ) ( * Nl2main_i2 lam6n7 ) ( * Nl2main_i3 lam6n8 ) ( - ( + 0 ( * Nl2main_i2 1 ) ) ) ) 0 ) ( = ( + ( * ( - 1 ) lam6n0 ) ( * 1 lam6n1 ) ( * ( - 1 ) lam6n2 ) ( * ( - 1 ) lam6n4 ) ( * 3 lam6n5 ) ( * Nl2main_j1 lam6n6 ) ( * Nl2main_j2 lam6n7 ) ( * Nl2main_j3 lam6n8 ) ( - ( + 0 ( * Nl2main_j2 1 ) ) ) ) 0 ) ) ))
(assert ( or ( and ( >= lam4n0 0 ) ( >= lam4n1 0 ) ( >= lam4n2 0 ) ( >= lam4n3 0 ) ( >= lam4n4 0 ) ( >= lam4n5 0 ) ( >= lam4n6 0 ) ( >= lam4n7 0 ) ( >= lam4n8 0 ) ( > ( + ( * 1 lam4n1 ) ( * 5 lam4n2 ) ( * 50001 lam4n3 ) ( * 50001 lam4n4 ) ( * 50001 lam4n5 ) ( * Nl2CT1 lam4n6 ) ( * Nl2CT2 lam4n7 ) ( * Nl2CT3 lam4n8 ) ( - 1 ) ) 0 ) ( = ( + ( * ( - 1 ) lam4n0 ) ( * ( - 1 ) lam4n1 ) ( * ( - 1 ) lam4n3 ) ( * ( - 2 ) lam4n4 ) ( * ( - 2 ) lam4n5 ) ( * Nl2main_i1 lam4n6 ) ( * Nl2main_i2 lam4n7 ) ( * Nl2main_i3 lam4n8 ) ) 0 ) ( = ( + ( * ( - 1 ) lam4n0 ) ( * 1 lam4n1 ) ( * ( - 1 ) lam4n2 ) ( * ( - 1 ) lam4n4 ) ( * 3 lam4n5 ) ( * Nl2main_j1 lam4n6 ) ( * Nl2main_j2 lam4n7 ) ( * Nl2main_j3 lam4n8 ) ) 0 ) ) ( and ( >= lam7n0 0 ) ( >= lam7n1 0 ) ( >= lam7n2 0 ) ( >= lam7n3 0 ) ( >= lam7n4 0 ) ( >= lam7n5 0 ) ( >= lam7n6 0 ) ( >= lam7n7 0 ) ( >= lam7n8 0 ) ( > ( + ( * 1 lam7n1 ) ( * 5 lam7n2 ) ( * 50001 lam7n3 ) ( * 50001 lam7n4 ) ( * 50001 lam7n5 ) ( * Nl2CT1 lam7n6 ) ( * Nl2CT2 lam7n7 ) ( * Nl2CT3 lam7n8 ) ( - 1 ( + ( + Nl2CT3 ( * Nl2main_i3 1 ) ) ( * Nl2main_j3 ( - 1 ) ) ) ) ) 0 ) ( = ( + ( * ( - 1 ) lam7n0 ) ( * ( - 1 ) lam7n1 ) ( * ( - 1 ) lam7n3 ) ( * ( - 2 ) lam7n4 ) ( * ( - 2 ) lam7n5 ) ( * Nl2main_i1 lam7n6 ) ( * Nl2main_i2 lam7n7 ) ( * Nl2main_i3 lam7n8 ) ( - ( + 0 ( * Nl2main_i3 1 ) ) ) ) 0 ) ( = ( + ( * ( - 1 ) lam7n0 ) ( * 1 lam7n1 ) ( * ( - 1 ) lam7n2 ) ( * ( - 1 ) lam7n4 ) ( * 3 lam7n5 ) ( * Nl2main_j1 lam7n6 ) ( * Nl2main_j2 lam7n7 ) ( * Nl2main_j3 lam7n8 ) ( - ( + 0 ( * Nl2main_j3 1 ) ) ) ) 0 ) ) ))
(assert ( and ( <= ( + Nl2CT1 ( * Nl2main_i1 FV_main_i_2 ) ( * Nl2main_j1 FV_main_j_2 ) ) 0 ) ( <= ( + Nl2CT2 ( * Nl2main_i2 FV_main_i_2 ) ( * Nl2main_j2 FV_main_j_2 ) ) 0 ) ( <= ( + Nl2CT3 ( * Nl2main_i3 FV_main_i_2 ) ( * Nl2main_j3 FV_main_j_2 ) ) 0 ) ))
(assert ( or ( and ( >= lam11n0 0 ) ( >= lam11n1 0 ) ( >= lam11n2 0 ) ( >= lam11n3 0 ) ( >= lam11n4 0 ) ( >= lam11n5 0 ) ( >= lam11n6 0 ) ( >= lam11n7 0 ) ( > ( + ( * 5 lam11n0 ) ( * ( - 2 ) lam11n1 ) ( * 50001 lam11n2 ) ( * 50001 lam11n3 ) ( * ( - 50000 ) lam11n4 ) ( * Nl2CT1 lam11n5 ) ( * Nl2CT2 lam11n6 ) ( * Nl2CT3 lam11n7 ) ( - 1 ) ) 0 ) ( = ( + ( * 1 lam11n1 ) ( * ( - 1 ) lam11n2 ) ( * ( - 2 ) lam11n3 ) ( * 2 lam11n4 ) ( * Nl2main_i1 lam11n5 ) ( * Nl2main_i2 lam11n6 ) ( * Nl2main_i3 lam11n7 ) ) 0 ) ( = ( + ( * ( - 1 ) lam11n0 ) ( * ( - 1 ) lam11n1 ) ( * ( - 1 ) lam11n3 ) ( * ( - 3 ) lam11n4 ) ( * Nl2main_j1 lam11n5 ) ( * Nl2main_j2 lam11n6 ) ( * Nl2main_j3 lam11n7 ) ) 0 ) ) ( and ( >= lam12n0 0 ) ( >= lam12n1 0 ) ( >= lam12n2 0 ) ( >= lam12n3 0 ) ( >= lam12n4 0 ) ( >= lam12n5 0 ) ( >= lam12n6 0 ) ( > ( + ( * 5 lam12n0 ) ( * ( - 2 ) lam12n1 ) ( * ( - 50000 ) lam12n2 ) ( * ( - 50000 ) lam12n3 ) ( * Nl2CT1 lam12n4 ) ( * Nl2CT2 lam12n5 ) ( * Nl2CT3 lam12n6 ) ( - 1 ) ) 0 ) ( = ( + ( * 1 lam12n1 ) ( * 1 lam12n2 ) ( * 2 lam12n3 ) ( * Nl2main_i1 lam12n4 ) ( * Nl2main_i2 lam12n5 ) ( * Nl2main_i3 lam12n6 ) ) 0 ) ( = ( + ( * ( - 1 ) lam12n0 ) ( * ( - 1 ) lam12n1 ) ( * ( - 3 ) lam12n3 ) ( * Nl2main_j1 lam12n4 ) ( * Nl2main_j2 lam12n5 ) ( * Nl2main_j3 lam12n6 ) ) 0 ) ) ( and ( >= lam13n0 0 ) ( >= lam13n1 0 ) ( >= lam13n2 0 ) ( >= lam13n3 0 ) ( >= lam13n4 0 ) ( >= lam13n5 0 ) ( >= lam13n6 0 ) ( >= lam13n7 0 ) ( > ( + ( * 5 lam13n0 ) ( * 3 lam13n1 ) ( * 50001 lam13n2 ) ( * 50001 lam13n3 ) ( * ( - 50000 ) lam13n4 ) ( * Nl2CT1 lam13n5 ) ( * Nl2CT2 lam13n6 ) ( * Nl2CT3 lam13n7 ) ( - 1 ) ) 0 ) ( = ( + ( * ( - 1 ) lam13n1 ) ( * ( - 1 ) lam13n2 ) ( * ( - 2 ) lam13n3 ) ( * 2 lam13n4 ) ( * Nl2main_i1 lam13n5 ) ( * Nl2main_i2 lam13n6 ) ( * Nl2main_i3 lam13n7 ) ) 0 ) ( = ( + ( * ( - 1 ) lam13n0 ) ( * 1 lam13n1 ) ( * ( - 1 ) lam13n3 ) ( * ( - 3 ) lam13n4 ) ( * Nl2main_j1 lam13n5 ) ( * Nl2main_j2 lam13n6 ) ( * Nl2main_j3 lam13n7 ) ) 0 ) ) ( and ( >= lam14n0 0 ) ( >= lam14n1 0 ) ( >= lam14n2 0 ) ( >= lam14n3 0 ) ( >= lam14n4 0 ) ( >= lam14n5 0 ) ( >= lam14n6 0 ) ( > ( + ( * 5 lam14n0 ) ( * 3 lam14n1 ) ( * 50001 lam14n2 ) ( * ( - 50000 ) lam14n3 ) ( * Nl2CT1 lam14n4 ) ( * Nl2CT2 lam14n5 ) ( * Nl2CT3 lam14n6 ) ( - 1 ) ) 0 ) ( = ( + ( * ( - 1 ) lam14n1 ) ( * ( - 2 ) lam14n2 ) ( * 1 lam14n3 ) ( * Nl2main_i1 lam14n4 ) ( * Nl2main_i2 lam14n5 ) ( * Nl2main_i3 lam14n6 ) ) 0 ) ( = ( + ( * ( - 1 ) lam14n0 ) ( * 1 lam14n1 ) ( * ( - 1 ) lam14n2 ) ( * Nl2main_j1 lam14n4 ) ( * Nl2main_j2 lam14n5 ) ( * Nl2main_j3 lam14n6 ) ) 0 ) ) ( and ( >= lam15n0 0 ) ( >= lam15n1 0 ) ( >= lam15n2 0 ) ( >= lam15n3 0 ) ( >= lam15n4 0 ) ( >= lam15n5 0 ) ( >= lam15n6 0 ) ( >= lam15n7 0 ) ( > ( + ( * 5 lam15n0 ) ( * 3 lam15n1 ) ( * ( - 50000 ) lam15n2 ) ( * ( - 50000 ) lam15n3 ) ( * ( - 50000 ) lam15n4 ) ( * Nl2CT1 lam15n5 ) ( * Nl2CT2 lam15n6 ) ( * Nl2CT3 lam15n7 ) ( - 1 ) ) 0 ) ( = ( + ( * ( - 1 ) lam15n1 ) ( * 1 lam15n2 ) ( * 2 lam15n3 ) ( * 2 lam15n4 ) ( * Nl2main_i1 lam15n5 ) ( * Nl2main_i2 lam15n6 ) ( * Nl2main_i3 lam15n7 ) ) 0 ) ( = ( + ( * ( - 1 ) lam15n0 ) ( * 1 lam15n1 ) ( * 1 lam15n3 ) ( * ( - 3 ) lam15n4 ) ( * Nl2main_j1 lam15n5 ) ( * Nl2main_j2 lam15n6 ) ( * Nl2main_j3 lam15n7 ) ) 0 ) ) ( and ( >= lam16n0 0 ) ( >= lam16n1 0 ) ( >= lam16n2 0 ) ( >= lam16n3 0 ) ( >= lam16n4 0 ) ( >= lam16n5 0 ) ( >= lam16n6 0 ) ( > ( + ( * ( - 4 ) lam16n0 ) ( * ( - 2 ) lam16n1 ) ( * ( - 50000 ) lam16n2 ) ( * ( - 50000 ) lam16n3 ) ( * Nl2CT1 lam16n4 ) ( * Nl2CT2 lam16n5 ) ( * Nl2CT3 lam16n6 ) ( - 1 ) ) 0 ) ( = ( + ( * 1 lam16n1 ) ( * 1 lam16n2 ) ( * 2 lam16n3 ) ( * Nl2main_i1 lam16n4 ) ( * Nl2main_i2 lam16n5 ) ( * Nl2main_i3 lam16n6 ) ) 0 ) ( = ( + ( * 1 lam16n0 ) ( * ( - 1 ) lam16n1 ) ( * 1 lam16n3 ) ( * Nl2main_j1 lam16n4 ) ( * Nl2main_j2 lam16n5 ) ( * Nl2main_j3 lam16n6 ) ) 0 ) ) ( and ( >= lam17n0 0 ) ( >= lam17n1 0 ) ( >= lam17n2 0 ) ( >= lam17n3 0 ) ( >= lam17n4 0 ) ( >= lam17n5 0 ) ( >= lam17n6 0 ) ( >= lam17n7 0 ) ( > ( + ( * ( - 4 ) lam17n0 ) ( * 3 lam17n1 ) ( * 50001 lam17n2 ) ( * 50001 lam17n3 ) ( * ( - 50000 ) lam17n4 ) ( * Nl2CT1 lam17n5 ) ( * Nl2CT2 lam17n6 ) ( * Nl2CT3 lam17n7 ) ( - 1 ) ) 0 ) ( = ( + ( * ( - 1 ) lam17n1 ) ( * ( - 1 ) lam17n2 ) ( * ( - 2 ) lam17n3 ) ( * 2 lam17n4 ) ( * Nl2main_i1 lam17n5 ) ( * Nl2main_i2 lam17n6 ) ( * Nl2main_i3 lam17n7 ) ) 0 ) ( = ( + ( * 1 lam17n0 ) ( * 1 lam17n1 ) ( * 3 lam17n3 ) ( * 1 lam17n4 ) ( * Nl2main_j1 lam17n5 ) ( * Nl2main_j2 lam17n6 ) ( * Nl2main_j3 lam17n7 ) ) 0 ) ) ( and ( >= lam18n0 0 ) ( >= lam18n1 0 ) ( >= lam18n2 0 ) ( >= lam18n3 0 ) ( >= lam18n4 0 ) ( >= lam18n5 0 ) ( > ( + ( * ( - 4 ) lam18n0 ) ( * 3 lam18n1 ) ( * ( - 50000 ) lam18n2 ) ( * Nl2CT1 lam18n3 ) ( * Nl2CT2 lam18n4 ) ( * Nl2CT3 lam18n5 ) ( - 1 ) ) 0 ) ( = ( + ( * ( - 1 ) lam18n1 ) ( * 1 lam18n2 ) ( * Nl2main_i1 lam18n3 ) ( * Nl2main_i2 lam18n4 ) ( * Nl2main_i3 lam18n5 ) ) 0 ) ( = ( + ( * 1 lam18n0 ) ( * 1 lam18n1 ) ( * Nl2main_j1 lam18n3 ) ( * Nl2main_j2 lam18n4 ) ( * Nl2main_j3 lam18n5 ) ) 0 ) ) ))
(assert ( and ( and ( <= ( + Nl2CT1 ( * Nl2main_i1 FV_main_i_3 ) ( * Nl2main_j1 FV_main_j_3 ) ) 0 ) ( <= ( + Nl2CT2 ( * Nl2main_i2 FV_main_i_3 ) ( * Nl2main_j2 FV_main_j_3 ) ) 0 ) ( <= ( + Nl2CT3 ( * Nl2main_i3 FV_main_i_3 ) ( * Nl2main_j3 FV_main_j_3 ) ) 0 ) ) ( or ( and ( <= ( + ( * ( - 1 ) FV_main_i_3 ) ( * ( - 1 ) FV_main_j_3 ) ) 0 ) ( <= ( + 1 ( * ( - 1 ) FV_main_j_3 ) ) 0 ) ( <= ( + ( - 4 ) FV_main_j_3 ) 0 ) ( <= ( + 3 ( * ( - 1 ) FV_main_i_3 ) FV_main_j_3 ) 0 ) ( <= ( + 50001 ( * ( - 1 ) FV_main_i_3 ) ) 0 ) ( <= ( + 50001 ( * ( - 2 ) FV_main_i_3 ) ( * ( - 1 ) FV_main_j_3 ) ) 0 ) ( <= ( + 50001 ( * ( - 2 ) FV_main_i_3 ) ( * 3 FV_main_j_3 ) ) 0 ) ) ( and ( <= ( + ( * ( - 1 ) FV_main_i_3 ) ( * ( - 1 ) FV_main_j_3 ) ) 0 ) ( <= ( + 1 ( * ( - 1 ) FV_main_i_3 ) FV_main_j_3 ) 0 ) ( <= ( + 5 ( * ( - 1 ) FV_main_j_3 ) ) 0 ) ( <= ( + 50001 ( * ( - 1 ) FV_main_i_3 ) ) 0 ) ( <= ( + 50001 ( * ( - 2 ) FV_main_i_3 ) ( * ( - 1 ) FV_main_j_3 ) ) 0 ) ( <= ( + 50001 ( * ( - 2 ) FV_main_i_3 ) ( * 3 FV_main_j_3 ) ) 0 ) ) ) ))
(check-sat)
(exit)
